(set-logic QF_S)
(declare-fun var0 () String)
(declare-fun var1 () String)
(declare-fun var2 () String)
(declare-fun var3 () String)
(declare-fun var4 () String)
(declare-fun var5 () String)
(declare-fun var6 () String)
(declare-fun var7 () String)
(declare-fun var8 () String)
(declare-fun var9 () String)
(declare-fun var10 () String)
(declare-fun var11 () String)
(declare-fun var12 () String)
(declare-fun var13 () String)
(declare-fun var14 () String)
(declare-fun var15 () String)
(declare-fun var16 () String)
(declare-fun var17 () String)
(declare-fun var18 () String)
(declare-fun var19 () String)
(declare-fun var20 () String)
(declare-fun var21 () String)
(declare-fun var22 () String)
(declare-fun var23 () String)
(declare-fun var24 () String)
(declare-fun var25 () String)
(declare-fun var26 () String)
(declare-fun var27 () String)
(declare-fun var28 () String)
(declare-fun var29 () String)
(declare-fun var30 () String)
(declare-fun var31 () String)
(declare-fun var32 () String)
(declare-fun var33 () String)
(declare-fun var34 () String)
(declare-fun var35 () String)
(declare-fun var36 () String)
(declare-fun var37 () String)
(declare-fun var38 () String)
(declare-fun var39 () String)
(declare-fun var40 () String)
(declare-fun var41 () String)
(declare-fun var42 () String)
(declare-fun var43 () String)
(declare-fun var44 () String)
(declare-fun var45 () String)
(declare-fun var46 () String)
(declare-fun var47 () String)
(declare-fun var48 () String)
(declare-fun var49 () String)
(declare-fun var50 () String)
(declare-fun var51 () String)
(declare-fun var52 () String)
(declare-fun var53 () String)
(declare-fun var54 () String)
(declare-fun var55 () String)
(declare-fun var56 () String)
(declare-fun var57 () String)
(declare-fun var58 () String)
(declare-fun var59 () String)
(declare-fun var60 () String)
(assert (= var0 (str.++ var1 var2)))
(assert (= var2 (str.++ var3 var4)))
(assert (= var4 (str.++ var5 var6)))
(assert (= var6 (str.++ var7 var8)))
(assert (= var8 (str.++ var9 var10)))
(assert (= var10 (str.++ var11 var12)))
(assert (= var12 (str.++ var13 var14)))
(assert (= var14 (str.++ var15 var16)))
(assert (= var16 (str.++ var17 var18)))
(assert (= var18 (str.++ var19 var20)))
(assert (= var20 (str.++ var21 var22)))
(assert (= var22 (str.++ var23 var24)))
(assert (= var24 (str.++ var25 var26)))
(assert (= var26 (str.++ var27 var28)))
(assert (= var28 (str.++ var29 var30)))
(assert (= var30 (str.++ var31 var32)))
(assert (= var32 (str.++ var33 var34)))
(assert (= var34 (str.++ var35 var36)))
(assert (= var36 (str.++ var37 var38)))
(assert (= var38 (str.++ var39 var40)))
(assert (= var40 (str.++ var41 var42)))
(assert (= var42 (str.++ var43 var44)))
(assert (= var44 (str.++ var45 var46)))
(assert (= var46 (str.++ var47 var48)))
(assert (= var48 (str.++ var49 var50)))
(assert (= var50 (str.++ var51 var52)))
(assert (= var52 (str.++ var53 var54)))
(assert (= var54 (str.++ var55 var56)))
(assert (= var56 (str.++ var57 var58)))
(assert (= var58 (str.++ var59 var60)))
(assert (= var0 "solution"))
(assert (= "g" (str.at var51 158)))
(assert (= "V" (str.at var1 36)))
(assert (= "e" (str.at var22 138)))
(assert (= "7" (str.at var6 448)))
(assert (= "T" (str.at var21 350)))
(assert (= "#" (str.at var51 343)))
(assert (= "C" (str.at var47 64)))
(assert (= "f" (str.at var56 584)))
(assert (= "A" (str.at var28 415)))
(assert (= "P" (str.at var14 732)))
(assert (= "S" (str.at var47 457)))
(assert (= "6" (str.at var34 948)))
(assert (= "<" (str.at var4 385)))
(assert (= ")" (str.at var23 233)))
(assert (= "A" (str.at var29 21)))
(assert (= "L" (str.at var10 897)))
(assert (= "B" (str.at var36 944)))
(assert (= "a" (str.at var5 572)))
(assert (= ">" (str.at var20 973)))
(assert (= "m" (str.at var13 81)))
(assert (= "g" (str.at var8 206)))
(assert (= "?" (str.at var18 568)))
(assert (= "{" (str.at var41 178)))
(assert (= "{" (str.at var10 138)))
(assert (= "8" (str.at var43 943)))
(assert (= "}" (str.at var40 244)))
(assert (= "l" (str.at var24 89)))
(assert (= "G" (str.at var17 28)))
(assert (= "1" (str.at var23 544)))
(assert (= "Z" (str.at var3 213)))
(assert (= "H" (str.at var23 889)))
(assert (= "U" (str.at var49 915)))
(assert (= "T" (str.at var23 662)))
(assert (= "#" (str.at var2 311)))
(assert (= "Z" (str.at var36 842)))
(assert (= "G" (str.at var14 293)))
(assert (= "D" (str.at var20 852)))
(assert (= "=" (str.at var54 716)))
(assert (= "C" (str.at var27 964)))
(assert (= "!" (str.at var2 123)))
(assert (= "T" (str.at var49 756)))
(assert (= "X" (str.at var21 184)))
(assert (= "N" (str.at var10 690)))
(assert (= "d" (str.at var43 301)))
(assert (= "k" (str.at var51 105)))
(assert (= "]" (str.at var18 471)))
(assert (= "X" (str.at var51 584)))
(assert (= "x" (str.at var50 87)))
(assert (= "F" (str.at var25 200)))
(assert (= "Z" (str.at var23 142)))
(assert (= "*" (str.at var2 699)))
(assert (= "l" (str.at var2 365)))
(assert (= ":" (str.at var31 798)))
(assert (= "Q" (str.at var15 851)))
(assert (= "`" (str.at var43 53)))
(assert (= "G" (str.at var46 523)))
(assert (= "J" (str.at var41 447)))
(assert (= "4" (str.at var17 158)))
(assert (= "^" (str.at var44 152)))
(assert (= "4" (str.at var31 206)))
(assert (= "%" (str.at var39 597)))
(assert (= "B" (str.at var7 738)))
(assert (= "h" (str.at var30 42)))
(assert (= "^" (str.at var0 841)))
(assert (= "G" (str.at var41 5)))
(assert (= "Z" (str.at var12 196)))
(assert (= "-" (str.at var23 389)))
(assert (= "S" (str.at var36 398)))
(assert (= "&" (str.at var55 507)))
(assert (= "-" (str.at var44 723)))
(assert (= "-" (str.at var8 581)))
(assert (= "r" (str.at var28 646)))
(assert (= "\\" (str.at var47 665)))
(assert (= "*" (str.at var57 678)))
(assert (= "e" (str.at var7 53)))
(assert (= "9" (str.at var60 786)))
(assert (= "I" (str.at var56 320)))
(assert (= "8" (str.at var46 448)))
(assert (= "M" (str.at var38 371)))
(assert (= ")" (str.at var8 833)))
(assert (= "O" (str.at var5 700)))
(assert (= "k" (str.at var27 60)))
(assert (= "I" (str.at var7 85)))
(assert (= "8" (str.at var32 128)))
(assert (= "'" (str.at var20 164)))
(assert (= "]" (str.at var24 764)))
(assert (= "]" (str.at var36 738)))
(assert (= "^" (str.at var8 673)))
(assert (= "^" (str.at var51 305)))
(assert (= "\\" (str.at var28 401)))
(assert (= "<" (str.at var54 437)))
(assert (= "." (str.at var53 242)))
(assert (= "D" (str.at var32 276)))
(assert (= "5" (str.at var0 235)))
(assert (= "U" (str.at var45 385)))
(assert (= "k" (str.at var54 139)))
(assert (= "&" (str.at var56 645)))
(assert (= "N" (str.at var58 278)))
(assert (= "8" (str.at var44 689)))
(assert (= ";" (str.at var5 709)))
(assert (= "g" (str.at var30 770)))
(assert (= "6" (str.at var24 442)))
(assert (= "M" (str.at var24 775)))
(assert (= "+" (str.at var24 627)))
(assert (= """" (str.at var33 379)))
(assert (= "Y" (str.at var26 979)))
(assert (= "t" (str.at var27 543)))
(assert (= """" (str.at var27 766)))
(assert (= "x" (str.at var6 535)))
(assert (= "*" (str.at var25 182)))
(assert (= "-" (str.at var11 725)))
(assert (= "\\" (str.at var18 872)))
(assert (= "4" (str.at var2 966)))
(assert (= "[" (str.at var37 143)))
(assert (= "n" (str.at var29 920)))
(assert (= "k" (str.at var59 356)))
(assert (= ";" (str.at var59 755)))
(assert (= "@" (str.at var50 192)))
(assert (= "2" (str.at var11 384)))
(assert (= "Q" (str.at var24 259)))
(assert (= "c" (str.at var3 548)))
(assert (= "<" (str.at var14 467)))
(assert (= "U" (str.at var41 331)))
(assert (= "A" (str.at var38 358)))
(assert (= "," (str.at var6 923)))
(assert (= "]" (str.at var23 550)))
(assert (= "#" (str.at var35 696)))
(assert (= "b" (str.at var56 952)))
(assert (= "y" (str.at var6 56)))
(assert (= "j" (str.at var39 668)))
(assert (= "^" (str.at var13 804)))
(assert (= "~" (str.at var45 54)))
(assert (= "h" (str.at var20 706)))
(assert (= ":" (str.at var3 982)))
(assert (= "m" (str.at var31 279)))
(assert (= "K" (str.at var39 670)))
(assert (= "x" (str.at var29 305)))
(assert (= ";" (str.at var45 819)))
(assert (= "3" (str.at var32 142)))
(assert (= "*" (str.at var29 550)))
(assert (= "K" (str.at var12 971)))
(assert (= "6" (str.at var8 638)))
(assert (= "]" (str.at var14 6)))
(assert (= "@" (str.at var33 204)))
(assert (= "1" (str.at var24 154)))
(assert (= "W" (str.at var24 480)))
(assert (= "w" (str.at var32 764)))
(assert (= "|" (str.at var43 686)))
(assert (= "Z" (str.at var37 655)))
(assert (= "@" (str.at var50 358)))
(assert (= "N" (str.at var36 455)))
(assert (= "`" (str.at var13 206)))
(assert (= "W" (str.at var47 554)))
(assert (= "3" (str.at var58 906)))
(assert (= "," (str.at var40 187)))
(assert (= "Q" (str.at var50 910)))
(assert (= "." (str.at var30 913)))
(assert (= "p" (str.at var45 643)))
(assert (= "l" (str.at var16 562)))
(assert (= "." (str.at var7 275)))
(assert (= "|" (str.at var13 158)))
(assert (= "," (str.at var14 236)))
(assert (= "Q" (str.at var59 888)))
(assert (= "u" (str.at var52 241)))
(assert (= "J" (str.at var24 299)))
(assert (= "G" (str.at var53 343)))
(assert (= "3" (str.at var9 494)))
(assert (= "P" (str.at var17 2)))
(assert (= "(" (str.at var23 989)))
(assert (= "q" (str.at var39 882)))
(assert (= "!" (str.at var37 99)))
(assert (= "\\" (str.at var38 457)))
(assert (= "t" (str.at var47 302)))
(assert (= "F" (str.at var23 112)))
(assert (= "p" (str.at var20 15)))
(assert (= "`" (str.at var39 188)))
(assert (= "]" (str.at var34 889)))
(assert (= "q" (str.at var25 451)))
(assert (= "X" (str.at var37 180)))
(assert (= "%" (str.at var36 427)))
(assert (= "*" (str.at var47 801)))
(assert (= "2" (str.at var20 892)))
(assert (= "c" (str.at var30 996)))
(assert (= "e" (str.at var25 762)))
(assert (= "M" (str.at var40 603)))
(assert (= "h" (str.at var46 23)))
(assert (= "=" (str.at var7 691)))
(assert (= "2" (str.at var36 377)))
(assert (= "-" (str.at var44 623)))
(assert (= "[" (str.at var27 6)))
(assert (= "9" (str.at var50 697)))
(assert (= "M" (str.at var59 968)))
(assert (= "P" (str.at var23 155)))
(assert (= "b" (str.at var29 92)))
(assert (= "W" (str.at var16 605)))
(assert (= "\\" (str.at var1 801)))
(assert (= "%" (str.at var52 821)))
(assert (= "|" (str.at var9 930)))
(assert (= "o" (str.at var56 333)))
(assert (= ":" (str.at var25 934)))
(assert (= "]" (str.at var57 170)))
(assert (= "$" (str.at var20 249)))
(assert (= "5" (str.at var37 717)))
(assert (= "u" (str.at var21 218)))
(assert (= "w" (str.at var22 396)))
(assert (= "D" (str.at var4 707)))
(assert (= "2" (str.at var45 272)))
(assert (= """" (str.at var19 646)))
(assert (= "E" (str.at var6 962)))
(assert (= "w" (str.at var32 415)))
(assert (= "~" (str.at var55 102)))
(assert (= "H" (str.at var31 697)))
(assert (= "v" (str.at var10 531)))
(assert (= "3" (str.at var42 599)))
(assert (= "G" (str.at var29 246)))
(assert (= "d" (str.at var7 312)))
(assert (= "}" (str.at var38 793)))
(assert (= "K" (str.at var8 877)))
(assert (= "o" (str.at var46 764)))
(assert (= "e" (str.at var43 236)))
(assert (= "T" (str.at var42 412)))
(assert (= "r" (str.at var23 918)))
(assert (= ":" (str.at var23 169)))
(assert (= "q" (str.at var43 488)))
(assert (= "`" (str.at var13 972)))
(assert (= "*" (str.at var40 770)))
(assert (= "K" (str.at var40 151)))
(assert (= "." (str.at var37 580)))
(assert (= "Y" (str.at var47 783)))
(assert (= "y" (str.at var58 689)))
(assert (= "1" (str.at var29 856)))
(assert (= "_" (str.at var27 511)))
(assert (= """" (str.at var22 908)))
(assert (= "~" (str.at var53 683)))
(assert (= "v" (str.at var45 431)))
(assert (= "{" (str.at var4 147)))
(assert (= "<" (str.at var8 703)))
(assert (= "r" (str.at var13 508)))
(assert (= "m" (str.at var46 271)))
(assert (= "1" (str.at var6 743)))
(assert (= "c" (str.at var44 340)))
(assert (= "6" (str.at var46 51)))
(assert (= "Y" (str.at var0 75)))
(assert (= "G" (str.at var40 443)))
(assert (= "." (str.at var60 732)))
(assert (= "/" (str.at var50 277)))
(assert (= "$" (str.at var52 109)))
(assert (= "&" (str.at var54 318)))
(assert (= "/" (str.at var25 826)))
(assert (= "-" (str.at var8 106)))
(assert (= "-" (str.at var60 980)))
(assert (= "v" (str.at var28 181)))
(assert (= "j" (str.at var48 96)))
(assert (= "e" (str.at var11 803)))
(assert (= "L" (str.at var29 589)))
(assert (= "W" (str.at var9 17)))
(assert (= "*" (str.at var48 436)))
(assert (= "t" (str.at var51 652)))
(assert (= "U" (str.at var41 263)))
(assert (= "]" (str.at var29 613)))
(assert (= "H" (str.at var31 139)))
(assert (= "v" (str.at var24 924)))
(assert (= "2" (str.at var7 179)))
(assert (= "K" (str.at var28 526)))
(assert (= ")" (str.at var28 263)))
(assert (= "S" (str.at var29 992)))
(assert (= "1" (str.at var2 885)))
(assert (= "#" (str.at var54 259)))
(assert (= ";" (str.at var17 708)))
(assert (= "q" (str.at var29 630)))
(assert (= "s" (str.at var11 577)))
(assert (= "d" (str.at var59 421)))
(assert (= "R" (str.at var31 830)))
(assert (= "g" (str.at var38 359)))
(assert (= ";" (str.at var50 121)))
(assert (= "%" (str.at var39 85)))
(assert (= "," (str.at var7 423)))
(assert (= "}" (str.at var4 586)))
(assert (= "l" (str.at var15 29)))
(assert (= "T" (str.at var17 138)))
(assert (= "{" (str.at var3 271)))
(assert (= "6" (str.at var49 368)))
(assert (= "Z" (str.at var26 683)))
(assert (= "u" (str.at var16 166)))
(assert (= "w" (str.at var53 739)))
(assert (= "B" (str.at var1 500)))
(assert (= "(" (str.at var32 342)))
(assert (= "@" (str.at var51 805)))
(assert (= "!" (str.at var50 874)))
(assert (= "v" (str.at var1 605)))
(assert (= "X" (str.at var46 341)))
(assert (= "T" (str.at var13 824)))
(assert (= "$" (str.at var4 668)))
(assert (= "T" (str.at var20 205)))
(assert (= "j" (str.at var15 451)))
(assert (= "X" (str.at var56 205)))
(assert (= "j" (str.at var17 305)))
(assert (= "=" (str.at var42 0)))
(assert (= "c" (str.at var28 74)))
(assert (= "6" (str.at var35 428)))
(assert (= "u" (str.at var7 711)))
(assert (= "/" (str.at var56 533)))
(assert (= "u" (str.at var51 749)))
(assert (= "0" (str.at var54 774)))
(assert (= "!" (str.at var60 127)))
(assert (= "L" (str.at var11 877)))
(assert (= "m" (str.at var27 827)))
(assert (= "s" (str.at var7 491)))
(assert (= "v" (str.at var8 695)))
(assert (= "0" (str.at var31 48)))
(assert (= "h" (str.at var52 16)))
(assert (= "`" (str.at var24 582)))
(assert (= "e" (str.at var51 323)))
(assert (= "H" (str.at var17 529)))
(assert (= "8" (str.at var37 276)))
(assert (= "_" (str.at var12 781)))
(assert (= "^" (str.at var49 883)))
(assert (= "i" (str.at var31 660)))
(assert (= "H" (str.at var27 54)))
(assert (= "Q" (str.at var14 356)))
(assert (= "2" (str.at var11 768)))
(assert (= "h" (str.at var28 300)))
(assert (= "t" (str.at var1 179)))
(assert (= "w" (str.at var21 542)))
(assert (= "4" (str.at var24 185)))
(assert (= "J" (str.at var2 155)))
(assert (= "i" (str.at var36 552)))
(assert (= "e" (str.at var42 905)))
(assert (= "|" (str.at var42 977)))
(assert (= "^" (str.at var6 745)))
(assert (= "e" (str.at var58 44)))
(assert (= "p" (str.at var21 959)))
(assert (= ":" (str.at var13 691)))
(assert (= "x" (str.at var23 719)))
(assert (= "_" (str.at var6 977)))
(assert (= "A" (str.at var34 809)))
(assert (= "p" (str.at var36 469)))
(assert (= "L" (str.at var4 188)))
(assert (= "C" (str.at var41 521)))
(assert (= "9" (str.at var24 856)))
(assert (= "G" (str.at var49 905)))
(assert (= "%" (str.at var36 362)))
(assert (= "}" (str.at var34 714)))
(assert (= "8" (str.at var14 100)))
(assert (= "{" (str.at var20 915)))
(assert (= "{" (str.at var26 672)))
(assert (= "W" (str.at var12 54)))
(assert (= "@" (str.at var40 192)))
(assert (= "V" (str.at var3 680)))
(assert (= "U" (str.at var2 688)))
(assert (= "0" (str.at var43 912)))
(assert (= "U" (str.at var51 257)))
(assert (= "W" (str.at var29 635)))
(assert (= "N" (str.at var45 344)))
(assert (= "g" (str.at var5 484)))
(assert (= "}" (str.at var54 498)))
(assert (= "X" (str.at var19 710)))
(assert (= "|" (str.at var56 642)))
(assert (= "N" (str.at var59 384)))
(assert (= "g" (str.at var26 171)))
(assert (= "h" (str.at var1 694)))
(assert (= "]" (str.at var21 860)))
(assert (= "-" (str.at var49 853)))
(assert (= "i" (str.at var60 150)))
(assert (= "#" (str.at var5 900)))
(assert (= "!" (str.at var40 214)))
(assert (= "M" (str.at var6 576)))
(assert (= "|" (str.at var43 869)))
(assert (= "%" (str.at var48 630)))
(assert (= "~" (str.at var3 245)))
(assert (= "^" (str.at var51 10)))
(assert (= "W" (str.at var25 912)))
(assert (= "s" (str.at var38 180)))
(assert (= "s" (str.at var29 152)))
(assert (= "'" (str.at var10 814)))
(assert (= "T" (str.at var0 433)))
(assert (= "~" (str.at var23 872)))
(assert (= "~" (str.at var15 281)))
(assert (= "o" (str.at var27 984)))
(assert (= "0" (str.at var16 905)))
(assert (= "9" (str.at var29 793)))
(assert (= "|" (str.at var16 409)))
(assert (= "S" (str.at var24 960)))
(assert (= "*" (str.at var2 530)))
(assert (= "r" (str.at var30 515)))
(assert (= "j" (str.at var23 199)))
(assert (= "," (str.at var7 91)))
(assert (= "(" (str.at var21 473)))
(assert (= "d" (str.at var31 301)))
(assert (= "4" (str.at var44 802)))
(assert (= "C" (str.at var41 918)))
(assert (= "[" (str.at var12 981)))
(assert (= "q" (str.at var13 588)))
(assert (= "<" (str.at var1 337)))
(assert (= "f" (str.at var16 948)))
(assert (= "v" (str.at var1 583)))
(assert (= "u" (str.at var37 434)))
(assert (= "~" (str.at var48 735)))
(assert (= "}" (str.at var20 758)))
(assert (= "8" (str.at var48 845)))
(assert (= "8" (str.at var45 430)))
(assert (= "`" (str.at var20 840)))
(assert (= "(" (str.at var12 533)))
(assert (= "n" (str.at var13 931)))
(assert (= "H" (str.at var38 200)))
(assert (= "'" (str.at var0 451)))
(assert (= "G" (str.at var4 923)))
(assert (= "H" (str.at var51 103)))
(assert (= "&" (str.at var33 649)))
(assert (= "h" (str.at var4 247)))
(assert (= "I" (str.at var38 894)))
(assert (= "{" (str.at var5 979)))
(assert (= "H" (str.at var28 953)))
(assert (= "L" (str.at var0 160)))
(assert (= "3" (str.at var10 642)))
(assert (= "C" (str.at var16 423)))
(assert (= "6" (str.at var39 620)))
(assert (= "K" (str.at var33 483)))
(assert (= "w" (str.at var12 332)))
(assert (= "]" (str.at var37 864)))
(assert (= "8" (str.at var38 474)))
(assert (= "R" (str.at var47 43)))
(assert (= "H" (str.at var60 479)))
(assert (= "}" (str.at var12 843)))
(assert (= "," (str.at var52 307)))
(assert (= "A" (str.at var55 484)))
(assert (= """" (str.at var2 935)))
(assert (= "1" (str.at var28 47)))
(assert (= "+" (str.at var37 104)))
(assert (= "`" (str.at var3 802)))
(assert (= "=" (str.at var52 101)))
(assert (= ":" (str.at var5 660)))
(assert (= "f" (str.at var43 257)))
(assert (= "e" (str.at var21 427)))
(assert (= "^" (str.at var28 801)))
(assert (= "K" (str.at var0 135)))
(assert (= "s" (str.at var25 995)))
(assert (= "r" (str.at var12 706)))
(assert (= "P" (str.at var26 411)))
(assert (= "o" (str.at var2 868)))
(assert (= "C" (str.at var3 945)))
(assert (= "9" (str.at var59 302)))
(assert (= """" (str.at var21 235)))
(assert (= "L" (str.at var32 945)))
(assert (= "m" (str.at var25 131)))
(assert (= "3" (str.at var60 329)))
(assert (= "c" (str.at var26 842)))
(assert (= "W" (str.at var2 655)))
(assert (= "k" (str.at var13 244)))
(assert (= ")" (str.at var51 293)))
(assert (= "%" (str.at var53 803)))
(assert (= "v" (str.at var20 851)))
(assert (= "w" (str.at var37 494)))
(assert (= "x" (str.at var7 62)))
(assert (= "S" (str.at var22 991)))
(assert (= "k" (str.at var39 966)))
(assert (= "#" (str.at var14 421)))
(assert (= "." (str.at var39 460)))
(assert (= "H" (str.at var14 568)))
(assert (= "}" (str.at var58 750)))
(assert (= "S" (str.at var35 685)))
(assert (= "5" (str.at var1 297)))
(assert (= "4" (str.at var40 787)))
(assert (= "m" (str.at var57 792)))
(assert (= "z" (str.at var56 193)))
(assert (= "I" (str.at var5 280)))
(assert (= "]" (str.at var27 797)))
(assert (= "C" (str.at var56 844)))
(assert (= "r" (str.at var16 721)))
(assert (= "5" (str.at var21 194)))
(assert (= """" (str.at var1 94)))
(assert (= "r" (str.at var30 834)))
(assert (= "j" (str.at var28 978)))
(assert (= "p" (str.at var23 414)))
(assert (= "X" (str.at var27 870)))
(assert (= "3" (str.at var18 74)))
(assert (= "}" (str.at var4 514)))
(assert (= "?" (str.at var41 296)))
(assert (= "_" (str.at var36 780)))
(assert (= "0" (str.at var5 830)))
(assert (= "^" (str.at var40 710)))
(assert (= "e" (str.at var52 695)))
(assert (= ";" (str.at var58 855)))
(assert (= "_" (str.at var52 299)))
(assert (= "7" (str.at var26 300)))
(assert (= "&" (str.at var3 85)))
(assert (= "4" (str.at var24 163)))
(assert (= "^" (str.at var47 340)))
(assert (= "E" (str.at var36 473)))
(assert (= "1" (str.at var1 342)))
(assert (= "(" (str.at var25 556)))
(assert (= "@" (str.at var6 226)))
(assert (= "A" (str.at var48 823)))
(assert (= "*" (str.at var10 924)))
(assert (= "-" (str.at var31 386)))
(assert (= "3" (str.at var17 127)))
(assert (= "g" (str.at var19 113)))
(assert (= "S" (str.at var22 782)))
(assert (= "V" (str.at var58 853)))
(assert (= "?" (str.at var46 361)))
(assert (= "Q" (str.at var15 910)))
(assert (= "I" (str.at var50 470)))
(assert (= "<" (str.at var14 187)))
(assert (= "@" (str.at var9 882)))
(assert (= "h" (str.at var19 988)))
(assert (= "a" (str.at var47 662)))
(assert (= "n" (str.at var58 695)))
(assert (= "1" (str.at var29 24)))
(assert (= "E" (str.at var56 168)))
(assert (= "E" (str.at var18 46)))
(assert (= "@" (str.at var54 238)))
(assert (= "V" (str.at var30 769)))
(assert (= "q" (str.at var50 719)))
(assert (= ";" (str.at var56 65)))
(assert (= "f" (str.at var59 410)))
(assert (= "v" (str.at var8 626)))
(assert (= "." (str.at var48 321)))
(assert (= "v" (str.at var11 465)))
(assert (= "y" (str.at var20 947)))
(assert (= "}" (str.at var14 362)))
(assert (= "d" (str.at var54 678)))
(assert (= "l" (str.at var44 981)))
(assert (= "*" (str.at var46 253)))
(assert (= "d" (str.at var12 553)))
(assert (= "F" (str.at var9 468)))
(assert (= "p" (str.at var25 103)))
(assert (= "P" (str.at var53 177)))
(assert (= "U" (str.at var18 761)))
(assert (= "_" (str.at var40 768)))
(assert (= "N" (str.at var12 862)))
(assert (= "J" (str.at var0 702)))
(assert (= "j" (str.at var37 185)))
(assert (= "[" (str.at var42 764)))
(assert (= "S" (str.at var29 600)))
(assert (= ":" (str.at var51 637)))
(assert (= "P" (str.at var47 395)))
(assert (= "J" (str.at var23 17)))
(assert (= "^" (str.at var12 505)))
(assert (= "@" (str.at var42 267)))
(assert (= "o" (str.at var58 793)))
(assert (= "O" (str.at var58 880)))
(assert (= "E" (str.at var14 466)))
(assert (= "&" (str.at var47 361)))
(assert (= "5" (str.at var24 114)))
(assert (= "a" (str.at var20 719)))
(assert (= "Z" (str.at var2 189)))
(assert (= "i" (str.at var4 738)))
(assert (= "u" (str.at var27 131)))
(assert (= "." (str.at var8 99)))
(assert (= "L" (str.at var36 313)))
(assert (= "h" (str.at var11 278)))
(assert (= "." (str.at var27 273)))
(assert (= "#" (str.at var30 256)))
(assert (= "L" (str.at var53 929)))
(assert (= "0" (str.at var11 579)))
(assert (= "k" (str.at var36 939)))
(assert (= "`" (str.at var8 192)))
(assert (= ">" (str.at var57 518)))
(assert (= "{" (str.at var6 131)))
(assert (= "N" (str.at var44 956)))
(assert (= "s" (str.at var17 125)))
(assert (= "f" (str.at var30 579)))
(assert (= "+" (str.at var11 378)))
(assert (= ">" (str.at var52 264)))
(assert (= "H" (str.at var13 984)))
(assert (= "b" (str.at var19 593)))
(assert (= "T" (str.at var38 821)))
(assert (= "]" (str.at var35 694)))
(assert (= "%" (str.at var59 885)))
(assert (= "l" (str.at var37 163)))
(assert (= "&" (str.at var51 445)))
(assert (= "F" (str.at var15 345)))
(assert (= "Y" (str.at var49 969)))
(assert (= "}" (str.at var39 480)))
(assert (= "|" (str.at var14 142)))
(assert (= "`" (str.at var3 7)))
(assert (= "A" (str.at var31 424)))
(assert (= "9" (str.at var58 273)))
(assert (= "h" (str.at var54 228)))
(assert (= "Z" (str.at var36 755)))
(assert (= "l" (str.at var26 113)))
(assert (= "]" (str.at var13 440)))
(assert (= ">" (str.at var32 215)))
(assert (= "@" (str.at var26 603)))
(assert (= "8" (str.at var23 781)))
(assert (= "x" (str.at var24 385)))
(assert (= "f" (str.at var58 775)))
(assert (= "M" (str.at var10 17)))
(assert (= "O" (str.at var42 386)))
(assert (= "~" (str.at var4 695)))
(assert (= "A" (str.at var27 91)))
(assert (= "#" (str.at var7 353)))
(assert (= "&" (str.at var39 353)))
(assert (= "e" (str.at var14 803)))
(assert (= ">" (str.at var39 176)))
(assert (= "U" (str.at var16 887)))
(assert (= ")" (str.at var58 675)))
(assert (= "|" (str.at var44 934)))
(assert (= "o" (str.at var50 89)))
(assert (= "'" (str.at var7 218)))
(assert (= "C" (str.at var27 363)))
(assert (= "?" (str.at var32 644)))
(assert (= "]" (str.at var57 103)))
(assert (= "-" (str.at var26 841)))
(assert (= "!" (str.at var3 701)))
(assert (= "[" (str.at var12 209)))
(assert (= "[" (str.at var44 380)))
(assert (= "f" (str.at var11 254)))
(assert (= "c" (str.at var57 123)))
(assert (= "5" (str.at var53 961)))
(assert (= "u" (str.at var44 475)))
(assert (= "b" (str.at var47 726)))
(assert (= "F" (str.at var23 692)))
(assert (= "F" (str.at var45 252)))
(assert (= "B" (str.at var15 12)))
(assert (= "g" (str.at var25 477)))
(assert (= "l" (str.at var20 62)))
(assert (= "%" (str.at var44 186)))
(assert (= "I" (str.at var10 645)))
(assert (= "P" (str.at var32 552)))
(assert (= "_" (str.at var0 212)))
(assert (= "{" (str.at var20 65)))
(assert (= "s" (str.at var33 522)))
(assert (= "%" (str.at var24 822)))
(assert (= "u" (str.at var6 577)))
(assert (= "y" (str.at var25 868)))
(assert (= "l" (str.at var6 672)))
(assert (= "|" (str.at var43 193)))
(assert (= "-" (str.at var49 135)))
(assert (= "{" (str.at var30 940)))
(assert (= "S" (str.at var17 252)))
(assert (= ">" (str.at var40 489)))
(assert (= "b" (str.at var17 257)))
(assert (= "F" (str.at var53 186)))
(assert (= "+" (str.at var53 535)))
(assert (= "J" (str.at var37 483)))
(assert (= "E" (str.at var3 781)))
(assert (= "N" (str.at var40 722)))
(assert (= "`" (str.at var29 424)))
(assert (= "2" (str.at var34 950)))
(assert (= ")" (str.at var60 671)))
(assert (= "U" (str.at var18 335)))
(assert (= "j" (str.at var19 726)))
(assert (= "|" (str.at var1 23)))
(assert (= "t" (str.at var15 478)))
(assert (= "-" (str.at var0 394)))
(assert (= "e" (str.at var28 783)))
(assert (= "i" (str.at var22 648)))
(assert (= "P" (str.at var42 264)))
(assert (= "D" (str.at var30 245)))
(assert (= "}" (str.at var32 275)))
(assert (= """" (str.at var8 945)))
(assert (= "{" (str.at var0 659)))
(assert (= "m" (str.at var32 587)))
(assert (= "c" (str.at var16 510)))
(assert (= "Z" (str.at var41 360)))
(assert (= "s" (str.at var53 150)))
(assert (= "*" (str.at var16 303)))
(assert (= "D" (str.at var45 546)))
(assert (= "." (str.at var33 486)))
(assert (= "1" (str.at var42 123)))
(assert (= "k" (str.at var26 761)))
(assert (= "6" (str.at var3 457)))
(assert (= "+" (str.at var8 743)))
(assert (= "h" (str.at var5 108)))
(assert (= "H" (str.at var34 908)))
(assert (= "0" (str.at var2 136)))
(assert (= "L" (str.at var0 273)))
(assert (= "Z" (str.at var9 296)))
(assert (= "|" (str.at var43 545)))
(assert (= ")" (str.at var39 847)))
(assert (= "8" (str.at var31 117)))
(assert (= "'" (str.at var53 258)))
(assert (= "l" (str.at var19 406)))
(assert (= "$" (str.at var14 597)))
(assert (= "2" (str.at var53 81)))
(assert (= "W" (str.at var42 911)))
(assert (= "+" (str.at var2 607)))
(assert (= "~" (str.at var15 508)))
(assert (= "a" (str.at var45 229)))
(assert (= "u" (str.at var37 795)))
(assert (= "8" (str.at var21 108)))
(assert (= "}" (str.at var11 616)))
(assert (= "r" (str.at var39 505)))
(assert (= "a" (str.at var46 340)))
(assert (= "|" (str.at var1 333)))
(assert (= "n" (str.at var28 212)))
(assert (= "-" (str.at var45 314)))
(assert (= "9" (str.at var13 503)))
(assert (= "0" (str.at var4 497)))
(assert (= "K" (str.at var13 253)))
(assert (= "J" (str.at var8 188)))
(assert (= "m" (str.at var0 564)))
(assert (= "y" (str.at var48 957)))
(assert (= "z" (str.at var51 281)))
(assert (= "0" (str.at var37 745)))
(assert (= ":" (str.at var27 505)))
(assert (= "w" (str.at var45 186)))
(assert (= ">" (str.at var15 146)))
(assert (= "O" (str.at var33 26)))
(assert (= "l" (str.at var36 987)))
(assert (= "\\" (str.at var17 42)))
(assert (= "p" (str.at var29 586)))
(assert (= ">" (str.at var51 705)))
(assert (= "~" (str.at var59 592)))
(assert (= "i" (str.at var49 794)))
(assert (= "T" (str.at var33 162)))
(assert (= "*" (str.at var45 768)))
(assert (= "U" (str.at var50 820)))
(assert (= "W" (str.at var51 665)))
(assert (= "l" (str.at var40 753)))
(assert (= "H" (str.at var29 552)))
(assert (= "W" (str.at var51 529)))
(assert (= "U" (str.at var12 664)))
(assert (= """" (str.at var28 26)))
(assert (= "c" (str.at var23 121)))
(assert (= "[" (str.at var12 29)))
(assert (= "V" (str.at var37 754)))
(assert (= "[" (str.at var34 676)))
(assert (= "'" (str.at var27 931)))
(assert (= "d" (str.at var25 676)))
(assert (= "C" (str.at var33 515)))
(assert (= "R" (str.at var12 756)))
(assert (= "5" (str.at var10 979)))
(assert (= "Y" (str.at var54 55)))
(assert (= "#" (str.at var5 152)))
(assert (= ")" (str.at var4 961)))
(assert (= "R" (str.at var25 454)))
(assert (= "M" (str.at var1 261)))
(assert (= "-" (str.at var12 631)))
(assert (= "K" (str.at var31 342)))
(assert (= "]" (str.at var28 561)))
(assert (= ">" (str.at var45 987)))
(assert (= "3" (str.at var2 528)))
(assert (= "U" (str.at var17 888)))
(assert (= "m" (str.at var14 719)))
(assert (= "1" (str.at var48 98)))
(assert (= "a" (str.at var50 488)))
(assert (= "j" (str.at var0 262)))
(assert (= "~" (str.at var4 766)))
(assert (= "&" (str.at var3 581)))
(assert (= "$" (str.at var30 198)))
(assert (= "D" (str.at var37 961)))
(assert (= "I" (str.at var0 412)))
(assert (= "k" (str.at var11 277)))
(assert (= "0" (str.at var8 796)))
(assert (= "`" (str.at var47 42)))
(assert (= "R" (str.at var51 143)))
(assert (= "~" (str.at var39 129)))
(assert (= "^" (str.at var4 629)))
(assert (= "[" (str.at var56 255)))
(assert (= "e" (str.at var25 734)))
(assert (= "t" (str.at var21 669)))
(assert (= "m" (str.at var29 774)))
(assert (= "m" (str.at var29 726)))
(assert (= "w" (str.at var14 124)))
(assert (= ")" (str.at var60 124)))
(assert (= "j" (str.at var29 597)))
(assert (= "f" (str.at var24 311)))
(assert (= "Y" (str.at var60 889)))
(assert (= "0" (str.at var38 583)))
(assert (= "z" (str.at var9 22)))
(assert (= "x" (str.at var17 219)))
(assert (= "(" (str.at var23 60)))
(assert (= "c" (str.at var31 91)))
(assert (= "V" (str.at var0 932)))
(assert (= "^" (str.at var10 287)))
(assert (= "x" (str.at var59 239)))
(assert (= "\\" (str.at var39 263)))
(assert (= "_" (str.at var14 456)))
(assert (= "D" (str.at var33 151)))
(assert (= "o" (str.at var33 796)))
(assert (= "I" (str.at var24 429)))
(assert (= "W" (str.at var8 404)))
(assert (= "e" (str.at var38 818)))
(assert (= "w" (str.at var58 185)))
(assert (= "Q" (str.at var44 341)))
(assert (= "}" (str.at var4 57)))
(assert (= "{" (str.at var23 687)))
(assert (= "?" (str.at var27 768)))
(assert (= "g" (str.at var50 134)))
(assert (= "I" (str.at var5 485)))
(assert (= "z" (str.at var4 17)))
(assert (= "L" (str.at var35 234)))
(assert (= "I" (str.at var10 975)))
(assert (= "M" (str.at var56 959)))
(assert (= "U" (str.at var7 415)))
(assert (= "c" (str.at var27 292)))
(assert (= "o" (str.at var12 808)))
(assert (= "z" (str.at var4 559)))
(assert (= "#" (str.at var14 267)))
(assert (= "!" (str.at var15 269)))
(assert (= "f" (str.at var23 593)))
(assert (= "5" (str.at var34 340)))
(assert (= "I" (str.at var10 519)))
(assert (= "R" (str.at var15 652)))
(assert (= "M" (str.at var26 56)))
(assert (= "D" (str.at var25 187)))
(assert (= ";" (str.at var54 706)))
(assert (= "n" (str.at var6 464)))
(assert (= "F" (str.at var54 856)))
(assert (= "{" (str.at var2 805)))
(assert (= "e" (str.at var17 746)))
(assert (= "o" (str.at var44 730)))
(assert (= "@" (str.at var0 365)))
(assert (= "P" (str.at var56 873)))
(assert (= "u" (str.at var58 174)))
(assert (= "-" (str.at var38 592)))
(assert (= "f" (str.at var15 477)))
(assert (= "J" (str.at var58 766)))
(assert (= "," (str.at var7 38)))
(assert (= "z" (str.at var41 552)))
(assert (= "m" (str.at var0 582)))
(assert (= ">" (str.at var44 25)))
(assert (= "[" (str.at var27 40)))
(assert (= "*" (str.at var19 176)))
(assert (= "F" (str.at var17 469)))
(assert (= "b" (str.at var47 510)))
(assert (= "l" (str.at var60 925)))
(assert (= "^" (str.at var12 392)))
(assert (= "B" (str.at var20 791)))
(assert (= """" (str.at var19 295)))
(assert (= "y" (str.at var38 994)))
(assert (= "U" (str.at var25 386)))
(assert (= "n" (str.at var53 480)))
(assert (= "C" (str.at var32 606)))
(assert (= "z" (str.at var49 73)))
(assert (= "g" (str.at var24 383)))
(assert (= "+" (str.at var46 972)))
(assert (= "&" (str.at var28 348)))
(assert (= "K" (str.at var6 116)))
(assert (= "w" (str.at var29 579)))
(assert (= "<" (str.at var33 406)))
(assert (= "9" (str.at var43 487)))
(assert (= "'" (str.at var3 346)))
(assert (= "@" (str.at var51 841)))
(assert (= "[" (str.at var32 577)))
(assert (= "E" (str.at var57 767)))
(assert (= "D" (str.at var1 136)))
(assert (= "J" (str.at var58 296)))
(assert (= "h" (str.at var55 592)))
(assert (= "Q" (str.at var56 646)))
(assert (= "G" (str.at var41 79)))
(assert (= "e" (str.at var58 352)))
(assert (= "o" (str.at var57 8)))
(assert (= "/" (str.at var15 362)))
(assert (= "j" (str.at var37 58)))
(assert (= "`" (str.at var37 478)))
(assert (= "A" (str.at var41 769)))
(assert (= "z" (str.at var31 895)))
(assert (= "`" (str.at var49 145)))
(assert (= "I" (str.at var24 642)))
(assert (= "*" (str.at var38 678)))
(assert (= "~" (str.at var49 885)))
(assert (= "[" (str.at var12 519)))
(assert (= "T" (str.at var21 402)))
(assert (= "z" (str.at var34 403)))
(assert (= "B" (str.at var24 575)))
(assert (= "o" (str.at var54 78)))
(assert (= "0" (str.at var16 382)))
(assert (= "b" (str.at var42 1000)))
(assert (= "k" (str.at var15 776)))
(assert (= "k" (str.at var59 186)))
(assert (= "P" (str.at var11 236)))
(assert (= "K" (str.at var26 821)))
(assert (= "l" (str.at var29 926)))
(assert (= ")" (str.at var1 521)))
(assert (= "Q" (str.at var58 533)))
(assert (= "H" (str.at var19 968)))
(assert (= "2" (str.at var3 269)))
(assert (= "b" (str.at var38 617)))
(assert (= "@" (str.at var13 177)))
(assert (= "t" (str.at var36 596)))
(assert (= "d" (str.at var29 67)))
(assert (= "F" (str.at var31 49)))
(assert (= "q" (str.at var23 472)))
(assert (= "`" (str.at var50 572)))
(assert (= "&" (str.at var21 848)))
(assert (= "0" (str.at var2 835)))
(assert (= "[" (str.at var43 925)))
(assert (= "M" (str.at var52 816)))
(check-sat)